6 10 178
1 6 1 52 72 
1 5 1 54 74 
3 2 1 1 1 5 2 6 30 30 54 84 112 
3 4 1 3 1 6 2 8 32 32 56 82 110 
3 2 2 3 2 6 3 38 80 80 122 122 158 
3 4 2 1 2 5 3 40 82 82 124 124 160 
2 3 3 5 4 132 154 166 175 
4 2 3 4 3 1 3 6 4 90 112 112 134 134 156 160 178 
15 4 1 1 1 1 1 2 2 5 1 5 1 3 2 3 2 5 2 5 2 5 3 3 3 3 3 6 4 6 4 0 8 8 18 18 24 30 38 38 46 46 54 54 62 62 68 72 74 74 84 112 122 122 128 128 132 150 158 158 160 
20 2 1 3 1 3 1 4 2 6 1 6 1 1 2 1 2 6 2 6 2 2 3 2 3 4 3 4 3 6 3 6 3 1 3 1 3 5 4 5 4 0 6 6 18 18 26 32 40 40 46 46 52 52 60 60 70 70 80 80 82 82 88 88 90 90 98 98 102 106 110 110 116 118 124 124 128 152 160 160 166 
